NAME : rdp105.1360781.tour
COMMENT : Cost = 0_1360781
COMMENT : Found by LKH [Keld Helsgaun] Thu Sep 14 15:51:50 2017
TYPE : TOUR
DIMENSION : 115
TOUR_SECTION
1
28
53
70
77
51
2
109
43
15
45
39
87
44
101
92
94
110
29
13
30
80
79
35
36
78
103
64
65
12
91
11
115
60
6
62
17
86
38
97
112
54
41
27
106
63
89
8
19
114
73
40
24
68
56
55
5
26
108
32
31
52
10
82
4
69
25
81
111
96
93
99
100
95
7
107
84
46
83
9
85
18
61
90
113
22
74
76
23
42
57
75
59
105
34
66
72
67
21
33
71
102
3
16
58
88
98
14
104
48
37
20
50
47
49
-1
EOF
